S = 5;
start = [|0,0,14,0,18,0,0,23,0,0,0,0,0,2,0,0,0,22,0,0,1,0,0,3,20|
4,8,17,11,0,0,0,0,0,0,0,0,0,0,5,23,2,0,0,6,0,0,0,0,0|
0,0,0,16,0,0,9,0,0,12,0,23,0,1,0,0,0,3,24,0,0,0,0,10,7|
0,0,0,15,0,0,0,20,21,0,22,0,0,6,0,0,0,0,0,0,0,0,0,0,16|
0,6,0,0,0,0,5,22,0,0,0,0,21,0,0,0,0,0,0,0,25,0,0,0,0|
3,4,0,0,0,0,0,21,10,0,0,5,1,0,0,0,0,18,0,0,0,0,8,0,23|
0,0,0,21,0,0,0,0,0,0,0,0,0,0,0,0,0,0,0,0,0,13,0,0,0|
0,0,0,0,9,0,0,0,12,0,0,0,0,0,0,0,6,5,0,1,0,0,0,0,0|
0,0,0,0,0,0,0,0,0,0,0,0,0,0,0,0,21,9,0,0,0,0,0,0,0|
0,0,0,0,0,20,17,3,0,0,0,11,0,0,15,4,10,0,0,0,9,0,0,0,21|
0,0,0,22,0,0,0,7,9,0,10,4,0,8,0,15,0,17,0,2,13,0,12,0,0|
0,0,0,0,0,8,0,0,0,0,16,0,0,0,21,0,0,6,0,0,20,0,0,17,0|
0,0,0,0,0,0,0,0,0,0,0,22,2,20,0,0,0,0,4,0,0,0,0,0,6|
1,2,0,0,8,0,0,0,16,0,0,15,0,0,9,21,0,10,0,20,0,24,0,4,19|
0,0,13,0,0,0,0,0,11,0,0,0,0,0,0,0,0,0,0,0,18,0,7,15,9|
0,0,0,0,13,0,14,17,0,0,0,10,0,0,11,0,0,0,0,0,0,3,0,0,0|
10,0,0,0,12,11,0,0,0,0,14,0,0,15,0,0,0,0,6,0,0,7,0,0,0|
0,18,15,0,21,3,0,0,0,24,0,0,6,0,25,0,0,20,0,14,0,19,13,0,0|
0,7,0,0,0,0,0,19,0,0,17,0,8,0,0,0,0,0,0,0,0,0,0,0,5|
0,0,0,0,22,0,16,25,0,0,20,0,0,5,0,18,17,0,10,3,12,0,0,0,0|
14,11,0,0,24,5,13,0,0,0,0,0,15,4,0,0,8,0,21,0,0,0,0,6,0|
0,9,0,3,0,0,0,0,0,10,0,0,0,0,1,5,0,0,0,17,0,20,0,0,0|
0,5,0,23,2,9,0,0,0,8,24,14,0,0,0,0,0,0,16,0,0,0,0,0,0|
0,0,8,0,0,0,0,15,23,0,0,0,0,0,0,0,3,4,0,0,14,16,0,0,0|
0,0,0,4,20,0,0,0,0,0,0,13,0,0,22,2,14,0,0,19,0,0,17,0,8|];